InboundTrucks  = 12;
OutboundTrucks = 8;
InboundDoors   = 2;
OutboundDoors  = 1;
ReleaseTime    = [3,5,4,4,2,5,3,3,5,1,2,1];
UnloadTime     = [13,12,5,11,14,8,12,12,9,10,8,8];
LoadTime       = [14,15,7,12,13,10,11,14];
TransferTime   = [| 5,4,2,2,2,7,3,4 | 5,7,8,2,6,8,8,2 | 2,3,4,7,6,5,2,8 | 4,7,8,5,8,6,3,4 | 6,5,3,6,7,6,2,3 | 6,4,3,6,7,6,3,5 | 5,3,6,7,3,7,2,4 | 7,7,6,2,6,2,6,4 | 2,8,5,2,5,6,6,3 | 4,2,2,6,7,7,2,7 | 4,4,4,5,5,4,8,6 | 3,7,4,8,2,2,8,6 |];
